words_hard_train/6681.qaiger
aag 70 16 0 1 54
2
4
12
14
20
22
26
28
44
46
54
56
66
68
78
80
140
6 3 5
8 2 4
10 7 9
16 12 14
18 11 17
24 21 23
30 26 28
32 27 29
34 31 33
36 24 35
38 13 15
40 10 39
42 37 41
48 45 47
50 42 49
52 19 50
58 54 56
60 55 57
62 59 61
64 63 61
70 66 68
72 67 69
74 71 73
76 64 74
82 79 81
84 63 82
86 77 85
88 52 86
90 49 39
92 91 17
94 93 7
96 95 9
98 62 96
100 78 80
102 101 83
104 99 102
106 88 105
108 25 34
110 20 22
112 108 111
114 113 71
116 44 46
118 115 117
120 25 73
122 35 110
124 120 123
126 125 58
128 127 75
130 118 129
132 62 78
134 133 97
136 135 103
138 130 137
140 106 138
i0 1 x1[2]
i1 2 y2[2]
i2 1 x1[1]
i3 2 y2[1]
i4 1 x1[6]
i5 2 y2[6]
i6 1 x1[7]
i7 2 y2[7]
i8 1 x1[0]
i9 2 y2[0]
i10 1 x1[4]
i11 2 y2[4]
i12 1 x1[5]
i13 2 y2[5]
i14 1 x1[3]
i15 2 y2[3]
o0 bool[0]
c
simplified
  ==
    1
    subtract
      invert
        1 x1
      add
        1
        2 y2
