words_hard_train/6681.qaiger.qdimacs
p cnf 70 163
a 1 33 6 39 10 13 22 27 0
e 2 3 4 5 7 8 9 11 12 14 15 16 17 18 19 20 21 23 24 25 26 28 29 30 31 32 34 35 36 37 38 40 41 42 43 44 45 46 47 48 49 50 51 52 53 54 55 56 57 58 59 60 61 62 63 64 65 66 67 68 69 70 0
1 2 3 0
-1 -3 0
-2 -3 0
-1 -2 4 0
1 -4 0
2 -4 0
3 4 5 0
-3 -5 0
-4 -5 0
-6 -7 8 0
6 -8 0
7 -8 0
5 8 9 0
-5 -9 0
-8 -9 0
10 11 12 0
-10 -12 0
-11 -12 0
-13 -14 15 0
13 -15 0
14 -15 0
13 14 16 0
-13 -16 0
-14 -16 0
15 16 17 0
-15 -17 0
-16 -17 0
-12 17 18 0
12 -18 0
-17 -18 0
6 7 19 0
-6 -19 0
-7 -19 0
-5 19 20 0
5 -20 0
-19 -20 0
18 20 21 0
-18 -21 0
-20 -21 0
22 23 24 0
-22 -24 0
-23 -24 0
-21 24 25 0
21 -25 0
-24 -25 0
9 -25 26 0
-9 -26 0
25 -26 0
-27 -28 29 0
27 -29 0
28 -29 0
27 28 30 0
-27 -30 0
-28 -30 0
29 30 31 0
-29 -31 0
-30 -31 0
31 30 32 0
-31 -32 0
-30 -32 0
-33 -34 35 0
33 -35 0
34 -35 0
33 34 36 0
-33 -36 0
-34 -36 0
35 36 37 0
-35 -37 0
-36 -37 0
-32 -37 38 0
32 -38 0
37 -38 0
39 40 41 0
-39 -41 0
-40 -41 0
31 -41 42 0
-31 -42 0
41 -42 0
38 42 43 0
-38 -43 0
-42 -43 0
-26 -43 44 0
26 -44 0
43 -44 0
24 19 45 0
-24 -45 0
-19 -45 0
45 8 46 0
-45 -46 0
-8 -46 0
46 3 47 0
-46 -47 0
-3 -47 0
47 4 48 0
-47 -48 0
-4 -48 0
-31 -48 49 0
31 -49 0
48 -49 0
-39 -40 50 0
39 -50 0
40 -50 0
50 41 51 0
-50 -51 0
-41 -51 0
49 -51 52 0
-49 -52 0
51 -52 0
-44 52 53 0
44 -53 0
-52 -53 0
12 -17 54 0
-12 -54 0
17 -54 0
-10 -11 55 0
10 -55 0
11 -55 0
-54 55 56 0
54 -56 0
-55 -56 0
56 35 57 0
-56 -57 0
-35 -57 0
-22 -23 58 0
22 -58 0
23 -58 0
57 58 59 0
-57 -59 0
-58 -59 0
12 36 60 0
-12 -60 0
-36 -60 0
17 -55 61 0
-17 -61 0
55 -61 0
-60 61 62 0
60 -62 0
-61 -62 0
62 -29 63 0
-62 -63 0
29 -63 0
63 37 64 0
-63 -64 0
-37 -64 0
-59 64 65 0
59 -65 0
-64 -65 0
-31 -39 66 0
31 -66 0
39 -66 0
66 48 67 0
-66 -67 0
-48 -67 0
67 51 68 0
-67 -68 0
-51 -68 0
-65 68 69 0
65 -69 0
-68 -69 0
-53 -69 70 0
53 -70 0
69 -70 0
70 0
